<instance format="XCSP3" type="CSP">
  <variables>
    <var id="x0"> 8 15 16 </var>
    <var id="x1"> 0 1 17 </var>
    <var id="x2"> 2 16 17 </var>
    <var id="x3"> 2 15..17 </var>
    <var id="x4"> 0 2 8 17 </var>
    <var id="x5"> 1 14 </var>
    <var id="x6"> 1 8 15 17 </var>
    <var id="x7"> 2 8 15 16 </var>
    <var id="x8"> 3 8 9 </var>
    <var id="x9"> 1 4 10 </var>
    <var id="x10"> 9 10 </var>
    <var id="x11"> 1 8 10 </var>
    <var id="x12"> 0 9 14 </var>
    <var id="x13"> 1 4 9 </var>
    <var id="x14"> 1 4 14 </var>
    <var id="x15"> 0 1 8 9 14 </var>
    <var id="x16"> 2 11 17 </var>
    <var id="x17"> 5 10 13 </var>
    <var id="x18"> 2 10 11 13 17 </var>
    <var id="x19"> 5 13 </var>
    <var id="x20"> 2 5 17 </var>
    <var id="x21"> 5 7 11 </var>
    <var id="x22"> 2 5 7 13 </var>
    <var id="x23"> 9 11 13 15 </var>
    <var id="x24"> 1 9 12 17 </var>
    <var id="x25"> 1 7 9 </var>
    <var id="x26"> 1 12 13 15 </var>
    <var id="x27"> 1 7 9 12 13 15 </var>
    <var id="x28"> 11 13 17 </var>
    <var id="x29"> 1 12 13 </var>
    <var id="x30"> 1 9 11 15 </var>
    <var id="x31"> 3 6 9 15 </var>
    <var id="x32"> 1 3 15 </var>
    <var id="x33"> 0 9 15 </var>
    <var id="x34"> 1 4 5 9 15 </var>
    <var id="x35"> 1 4 5 </var>
    <var id="x36"> 1 4..6 15 </var>
    <var id="x37"> 0 1 9 15 </var>
    <var id="x38"> 0 5 9 </var>
    <var id="x39"> 1 12 15 17 </var>
    <var id="x40"> 0 1 5 9 12 17 </var>
    <var id="x41"> 9 12 17 </var>
    <var id="x42"> 1 5 15 </var>
    <var id="x43"> 0 9 12 14 15 17 </var>
    <var id="x44"> 1 5 12 14 </var>
    <var id="x45"> 1 5 9 12 15 17 </var>
    <var id="x46"> 1 5 14 15 </var>
    <var id="x47"> 8 16 </var>
    <var id="x48"> 1 8 12 17 </var>
    <var id="x49"> 1 4 5 10 12 17 </var>
    <var id="x50"> 1 5 8 10 16 </var>
    <var id="x51"> 4 16 17 </var>
    <var id="x52"> 1 4 5 </var>
    <var id="x53"> 1 8 16 </var>
    <var id="x54"> 5 8 16 </var>
    <var id="x55"> 9 11 15 16 </var>
    <var id="x56"> 2 11 15 </var>
    <var id="x57"> 4 5 9 </var>
    <var id="x58"> 4 5 15 16 </var>
    <var id="x59"> 2 9 16 </var>
    <var id="x60"> 5 9 15 </var>
    <var as="x55" id="x61"/>
    <var id="x62"> 1 4 7 8 16 </var>
    <var id="x63"> 1 4 12 15 16 </var>
    <var id="x64"> 1 2 8 15 16 </var>
    <var id="x65"> 1 4 7 12 15 </var>
    <var id="x66"> 2 8 </var>
    <var id="x67"> 1 2 4 12 </var>
    <var id="x68"> 1 4 7 15 </var>
    <var id="x69"> 2 8 12 15 16 </var>
    <var id="x70"> 4 9 10 16 </var>
    <var id="x71"> 4 5 10 15 16 </var>
    <var id="x72"> 4 5 9 15 </var>
    <var id="x73"> 3 4 9 15 16 </var>
    <var id="x74"> 10 11 </var>
    <var id="x75"> 3..5 </var>
    <var id="x76"> 3 5 9 15 </var>
    <var id="x77"> 5 9 16 </var>
    <var id="x78"> 2 8 11 12 </var>
    <var id="x79"> 0 5 12 </var>
    <var id="x80"> 8 16 </var>
    <var id="x81"> 2 12 13 16 </var>
    <var id="x82"> 2 5 8 11 16 </var>
    <var id="x83"> 5 12 13 </var>
    <var id="x84"> 2 5 8 12 16 </var>
    <var id="x85"> 0 2 5 8 13 16 </var>
    <var id="x86"> 5 9 12 </var>
    <var id="x87"> 6 8 9 16 </var>
    <var id="x88"> 9 12 13 15 </var>
    <var id="x89"> 9 15 16 </var>
    <var id="x90"> 8 13 </var>
    <var id="x91"> 5 8 9 12 15 </var>
    <var id="x92"> 5 8 9 12 15 16 </var>
    <var id="x93"> 5 8 9 13 16 </var>
    <var id="x94"> 4 9 10 </var>
    <var id="x95"> 2 5 10 </var>
    <var id="x96"> 9 12 14 </var>
    <var id="x97"> 5 9 12 </var>
    <var id="x98"> 2 4 5 12 14 </var>
    <var id="x99"> 9 14 </var>
    <var id="x100"> 2 5 9 10 12 </var>
    <var id="x101"> 9 13 15 </var>
    <var id="x102"> 2 12 15 17 </var>
    <var id="x103"> 12 13 15 </var>
    <var id="x104"> 2 7 9 12 13 17 </var>
    <var id="x105"> 2 15 </var>
    <var id="x106"> 2 7 9 15 17 </var>
    <var id="x107"> 2 12 14 17 </var>
    <var id="x108"> 7 14 15 </var>
    <var id="x109"> 1 8 16 </var>
    <var id="x110"> 12 13 15 17 </var>
    <var as="x26" id="x111"/>
    <var id="x112"> 2 15..17 </var>
    <var id="x113"> 1 12 13 </var>
    <var id="x114"> 1 15 </var>
    <var id="x115"> 1 8 15 16 </var>
    <var as="x69" id="x116"/>
    <var id="x117"> 6 8 11 15 </var>
    <var id="x118"> 11 15 </var>
    <var id="x119"> 1 5 7 15 </var>
    <var id="x120"> 7 15 </var>
    <var id="x121"> 1 5 8 15 </var>
    <var id="x122"> 1 5..7 11 15 </var>
    <var id="x123"> 5 8 10 15 </var>
    <var id="x124"> 5 7 8 </var>
    <var id="x125"> 1 3 11 </var>
    <var id="x126"> 1 4 9 </var>
    <var id="x127"> 1 4 13 16 </var>
    <var id="x128"> 7 9 13 16 </var>
    <var id="x129"> 9 11 13 </var>
    <var id="x130"> 1 3 4 13 </var>
    <var id="x131"> 1 3 9 </var>
    <var id="x132"> 7 9 13 16 </var>
    <var id="x133"> 1 8..10 </var>
    <var id="x134"> 9 10 12 13 17 </var>
    <var id="x135"> 1 8 10 </var>
    <var id="x136"> 3 9 17 </var>
    <var id="x137"> 8 10 13 17 </var>
    <var id="x138"> 1 12 17 </var>
    <var id="x139"> 1 8 9 </var>
    <var id="x140"> 8..10 12 </var>
  </variables>
  <constraints>
    <group>
      <allDifferent> %... </allDifferent>
      <args> x0 x1 x2 x3 x4 x5 x6 x7 </args>
      <args> x8 x9 x10 x11 x12 x13 x14 x15 </args>
      <args> x16 x17 x18 x19 x20 x21 x22 </args>
      <args> x23 x24 x25 x26 x27 x28 x29 x30 </args>
      <args> x31 x32 x33 x34 x35 x36 x37 x38 </args>
      <args> x39 x40 x41 x42 x43 x44 x45 x46 </args>
      <args> x47 x48 x49 x50 x51 x52 x53 x54 </args>
      <args> x55 x56 x57 x58 x59 x60 x61 </args>
      <args> x62 x63 x64 x65 x66 x67 x68 x69 </args>
      <args> x70 x71 x72 x73 x74 x75 x76 x77 </args>
      <args> x78 x79 x80 x81 x82 x83 x84 x85 </args>
      <args> x86 x87 x88 x89 x90 x91 x92 x93 </args>
      <args> x94 x95 x96 x97 x98 x99 x100 </args>
      <args> x101 x102 x103 x104 x105 x106 x107 x108 </args>
      <args> x109 x110 x111 x112 x113 x114 x115 x116 </args>
      <args> x117 x118 x119 x120 x121 x122 x123 x124 </args>
      <args> x125 x126 x127 x128 x129 x130 x131 x132 </args>
      <args> x133 x134 x135 x136 x137 x138 x139 x140 </args>
      <args> x0 x8 x23 x31 x47 x55 x101 x117 </args>
      <args> x16 x32 x39 x48 x56 x78 x102 x125 </args>
      <args> x1 x24 x40 x49 x57 x79 x86 x126 </args>
      <args> x25 x62 x70 x80 x87 x94 x109 x133 </args>
      <args> x9 x17 x26 x58 x63 x71 x103 x127 </args>
      <args> x2 x10 x41 x59 x81 x104 x128 x134 </args>
      <args> x11 x42 x50 x64 x82 x95 x105 x135 </args>
      <args> x12 x33 x43 x88 x96 x110 x118 x129 </args>
      <args> x13 x27 x34 x65 x72 x83 x111 x119 </args>
      <args> x3 x51 x73 x89 x106 x112 x120 x136 </args>
      <args> x4 x18 x28 x66 x74 x90 x137 </args>
      <args> x5 x19 x29 x44 x75 x113 x130 </args>
      <args> x6 x45 x60 x76 x91 x97 x121 x131 </args>
      <args> x14 x20 x35 x67 x98 x107 x138 </args>
      <args> x21 x36 x46 x52 x68 x108 x114 x122 </args>
      <args> x15 x30 x37 x53 x61 x99 x115 x139 </args>
      <args> x7 x69 x84 x92 x100 x116 x123 x140 </args>
      <args> x22 x38 x54 x77 x85 x93 x124 x132 </args>
    </group>
  </constraints>
</instance>

